NAME: X561-FSMD
COMMENT: Generated by Uchoa, Pecin, Pessoa, Poggi, Subramanian, and Vidal (2013). Modified by Sadykov, Pessoa and Uchoa (2017). Converted to PyVRP's VRPLIB dialect.
TYPE: HFVRP
DIMENSION: 561
VEHICLES: 1680
EDGE_WEIGHT_TYPE: EUC_2D
NODE_COORD_SECTION
1	500	500
2	487	949
3	492	770
4	150	556
5	130	719
6	962	393
7	54	890
8	861	705
9	338	631
10	119	741
11	48	296
12	982	827
13	18	954
14	558	698
15	857	337
16	963	72
17	218	46
18	705	484
19	315	3
20	331	358
21	688	156
22	314	338
23	214	428
24	193	866
25	381	924
26	968	10
27	797	382
28	733	544
29	956	878
30	576	270
31	257	778
32	713	605
33	270	940
34	880	401
35	245	168
36	973	29
37	888	919
38	943	703
39	364	248
40	932	60
41	575	18
42	663	990
43	667	351
44	85	708
45	801	330
46	261	91
47	163	953
48	509	249
49	237	336
50	791	356
51	314	168
52	356	726
53	260	412
54	630	144
55	534	255
56	356	444
57	448	320
58	987	333
59	691	109
60	319	476
61	83	716
62	395	818
63	605	769
64	633	162
65	651	644
66	221	4
67	551	912
68	762	604
69	337	41
70	156	318
71	756	357
72	749	173
73	535	235
74	719	700
75	900	564
76	717	4
77	337	441
78	759	103
79	615	132
80	365	498
81	42	268
82	952	2
83	989	303
84	471	821
85	650	215
86	302	881
87	61	459
88	391	405
89	364	170
90	643	744
91	324	620
92	559	449
93	92	914
94	133	607
95	223	949
96	988	415
97	943	616
98	764	6
99	659	250
100	766	532
101	730	338
102	850	489
103	481	467
104	564	296
105	469	531
106	538	121
107	997	183
108	127	966
109	880	538
110	300	985
111	462	125
112	781	68
113	884	92
114	438	673
115	591	658
116	928	894
117	107	816
118	581	799
119	46	288
120	548	0
121	379	725
122	186	490
123	947	161
124	702	712
125	230	722
126	40	891
127	362	568
128	26	614
129	396	104
130	756	658
131	818	433
132	236	62
133	314	56
134	276	466
135	789	828
136	626	677
137	626	156
138	369	506
139	207	461
140	566	842
141	676	871
142	135	983
143	956	181
144	5	209
145	10	57
146	499	617
147	369	482
148	975	194
149	882	465
150	716	147
151	740	993
152	77	480
153	742	233
154	869	824
155	809	987
156	999	514
157	748	391
158	366	917
159	272	875
160	0	9
161	260	359
162	449	208
163	278	711
164	422	445
165	341	448
166	683	498
167	930	690
168	184	567
169	257	360
170	464	101
171	783	645
172	282	884
173	978	688
174	514	349
175	343	552
176	290	171
177	675	414
178	386	86
179	575	26
180	863	973
181	223	412
182	958	176
183	391	824
184	228	93
185	704	946
186	938	995
187	159	343
188	698	106
189	896	169
190	361	937
191	201	120
192	158	852
193	786	630
194	91	909
195	291	333
196	575	931
197	60	763
198	321	837
199	154	302
200	490	215
201	612	394
202	70	159
203	972	987
204	527	340
205	34	241
206	688	334
207	878	485
208	885	205
209	124	413
210	347	330
211	457	540
212	841	478
213	383	907
214	556	135
215	250	31
216	251	90
217	514	112
218	645	252
219	250	482
220	50	740
221	924	309
222	275	198
223	402	554
224	751	389
225	222	168
226	935	8
227	105	551
228	943	769
229	723	250
230	442	730
231	711	917
232	794	873
233	941	506
234	440	930
235	25	735
236	550	461
237	95	780
238	905	187
239	807	232
240	38	560
241	610	303
242	635	599
243	266	273
244	160	961
245	610	199
246	761	276
247	568	865
248	397	721
249	423	983
250	239	847
251	330	653
252	307	662
253	81	59
254	357	955
255	123	426
256	28	874
257	820	222
258	228	758
259	972	613
260	776	209
261	577	160
262	293	429
263	852	781
264	343	789
265	492	948
266	823	661
267	193	141
268	602	498
269	412	553
270	415	158
271	382	42
272	1	486
273	382	334
274	497	141
275	251	476
276	70	672
277	154	539
278	822	847
279	593	573
280	915	235
281	681	808
282	972	28
283	649	106
284	717	124
285	619	669
286	859	453
287	615	988
288	240	554
289	847	459
290	189	652
291	515	845
292	625	873
293	308	612
294	803	434
295	592	840
296	662	92
297	879	454
298	784	7
299	287	625
300	442	982
301	844	461
302	324	736
303	620	43
304	505	739
305	668	124
306	966	56
307	648	984
308	705	165
309	771	758
310	643	891
311	930	487
312	754	167
313	529	232
314	835	623
315	649	742
316	660	65
317	864	278
318	379	515
319	152	618
320	530	125
321	748	966
322	794	447
323	441	116
324	495	888
325	734	107
326	623	131
327	842	466
328	869	433
329	557	697
330	419	952
331	987	50
332	253	589
333	692	664
334	626	817
335	203	625
336	887	426
337	675	757
338	853	362
339	246	660
340	194	527
341	644	895
342	246	544
343	672	902
344	615	71
345	816	214
346	619	709
347	164	411
348	943	552
349	288	411
350	655	956
351	720	138
352	743	460
353	660	568
354	886	352
355	375	573
356	488	528
357	868	505
358	561	673
359	856	126
360	900	17
361	871	351
362	544	696
363	459	776
364	541	257
365	885	418
366	556	622
367	443	205
368	622	955
369	559	106
370	840	180
371	715	74
372	103	373
373	879	347
374	923	503
375	819	389
376	588	69
377	833	434
378	831	507
379	589	695
380	644	24
381	649	15
382	865	351
383	606	985
384	202	605
385	815	96
386	843	150
387	944	461
388	197	668
389	791	305
390	574	826
391	733	935
392	807	679
393	468	732
394	609	656
395	666	76
396	568	205
397	802	286
398	712	80
399	218	449
400	914	624
401	537	863
402	589	996
403	862	484
404	336	666
405	62	678
406	869	431
407	995	86
408	737	314
409	851	39
410	649	895
411	278	480
412	743	173
413	909	106
414	407	905
415	648	939
416	662	941
417	234	442
418	984	38
419	584	667
420	624	9
421	615	986
422	610	959
423	690	580
424	725	65
425	821	470
426	926	460
427	779	78
428	871	94
429	560	796
430	616	675
431	973	189
432	699	19
433	989	17
434	786	720
435	679	710
436	290	543
437	887	516
438	828	401
439	633	696
440	702	64
441	619	966
442	816	442
443	501	973
444	567	951
445	653	134
446	605	770
447	544	972
448	465	620
449	914	529
450	810	491
451	173	471
452	914	548
453	803	366
454	625	38
455	860	113
456	736	168
457	459	508
458	602	884
459	723	145
460	723	696
461	630	76
462	644	653
463	478	427
464	694	521
465	191	588
466	663	791
467	659	188
468	700	411
469	677	609
470	731	580
471	610	105
472	548	155
473	103	585
474	363	542
475	615	90
476	909	473
477	501	937
478	579	980
479	981	71
480	563	789
481	842	508
482	706	155
483	904	130
484	543	567
485	951	14
486	583	963
487	803	5
488	997	36
489	916	439
490	163	492
491	117	572
492	570	35
493	538	21
494	789	108
495	119	667
496	186	678
497	935	216
498	68	669
499	653	116
500	494	839
501	92	755
502	598	137
503	246	562
504	822	278
505	521	156
506	31	373
507	623	53
508	518	956
509	304	521
510	918	124
511	949	54
512	905	132
513	595	694
514	882	445
515	753	45
516	206	365
517	959	557
518	983	471
519	712	137
520	818	383
521	662	684
522	615	759
523	717	11
524	637	657
525	807	419
526	389	951
527	757	185
528	294	482
529	475	464
530	725	970
531	566	971
532	714	5
533	588	715
534	782	808
535	891	415
536	614	647
537	688	869
538	763	96
539	205	708
540	885	493
541	570	972
542	273	424
543	636	107
544	536	88
545	972	618
546	994	28
547	475	786
548	993	34
549	847	29
550	601	7
551	743	509
552	481	877
553	654	629
554	829	429
555	562	686
556	797	386
557	194	570
558	712	142
559	681	104
560	38	680
561	606	919
DEMAND_SECTION
1	0
2	9
3	7
4	5
5	5
6	8
7	1
8	2
9	6
10	8
11	2
12	6
13	7
14	8
15	8
16	5
17	3
18	4
19	2
20	8
21	6
22	3
23	3
24	4
25	4
26	8
27	8
28	10
29	1
30	1
31	9
32	9
33	10
34	10
35	5
36	5
37	6
38	4
39	9
40	3
41	8
42	4
43	5
44	9
45	4
46	9
47	1
48	7
49	8
50	4
51	5
52	9
53	3
54	8
55	6
56	6
57	8
58	6
59	8
60	6
61	10
62	3
63	9
64	8
65	6
66	6
67	4
68	3
69	7
70	4
71	6
72	10
73	7
74	2
75	7
76	5
77	4
78	3
79	8
80	1
81	1
82	5
83	8
84	2
85	9
86	6
87	10
88	8
89	1
90	6
91	2
92	4
93	7
94	3
95	9
96	9
97	6
98	8
99	3
100	5
101	6
102	8
103	4
104	3
105	9
106	4
107	7
108	1
109	8
110	9
111	2
112	8
113	6
114	1
115	9
116	2
117	5
118	7
119	7
120	2
121	10
122	4
123	8
124	9
125	2
126	9
127	2
128	5
129	7
130	3
131	9
132	8
133	6
134	4
135	8
136	4
137	8
138	6
139	3
140	3
141	5
142	5
143	5
144	10
145	8
146	6
147	7
148	7
149	2
150	1
151	10
152	1
153	9
154	3
155	3
156	10
157	6
158	1
159	10
160	6
161	3
162	3
163	10
164	8
165	6
166	2
167	9
168	5
169	1
170	1
171	2
172	8
173	7
174	2
175	9
176	9
177	5
178	3
179	8
180	2
181	8
182	6
183	3
184	5
185	4
186	7
187	5
188	1
189	10
190	8
191	7
192	5
193	10
194	4
195	4
196	2
197	7
198	1
199	1
200	8
201	2
202	3
203	1
204	2
205	3
206	9
207	9
208	5
209	9
210	7
211	2
212	4
213	6
214	1
215	7
216	6
217	10
218	10
219	2
220	10
221	3
222	8
223	5
224	2
225	3
226	8
227	8
228	7
229	9
230	9
231	6
232	3
233	6
234	6
235	10
236	2
237	3
238	3
239	6
240	1
241	7
242	3
243	4
244	10
245	4
246	5
247	5
248	6
249	2
250	7
251	2
252	3
253	6
254	2
255	7
256	10
257	8
258	10
259	1
260	8
261	1
262	7
263	6
264	3
265	10
266	4
267	5
268	5
269	9
270	5
271	4
272	8
273	5
274	3
275	4
276	7
277	4
278	7
279	2
280	6
281	6
282	1
283	2
284	7
285	10
286	7
287	6
288	9
289	10
290	5
291	1
292	4
293	6
294	2
295	6
296	9
297	9
298	2
299	5
300	7
301	10
302	3
303	5
304	8
305	7
306	2
307	10
308	10
309	5
310	7
311	8
312	8
313	7
314	6
315	1
316	8
317	4
318	3
319	5
320	2
321	4
322	5
323	4
324	9
325	2
326	4
327	7
328	2
329	6
330	3
331	7
332	4
333	7
334	7
335	2
336	2
337	9
338	5
339	8
340	7
341	9
342	4
343	7
344	3
345	1
346	6
347	6
348	3
349	8
350	9
351	6
352	10
353	5
354	6
355	9
356	2
357	10
358	2
359	3
360	5
361	9
362	1
363	10
364	4
365	10
366	5
367	8
368	2
369	6
370	5
371	7
372	4
373	5
374	6
375	2
376	4
377	2
378	6
379	5
380	8
381	4
382	4
383	3
384	5
385	9
386	1
387	4
388	7
389	1
390	5
391	6
392	8
393	3
394	1
395	10
396	2
397	9
398	7
399	6
400	9
401	3
402	6
403	5
404	8
405	3
406	3
407	6
408	1
409	6
410	10
411	6
412	1
413	2
414	7
415	7
416	8
417	1
418	4
419	7
420	3
421	5
422	3
423	9
424	4
425	2
426	7
427	6
428	5
429	4
430	1
431	8
432	5
433	6
434	2
435	9
436	5
437	5
438	3
439	2
440	5
441	9
442	1
443	6
444	7
445	1
446	8
447	3
448	10
449	6
450	10
451	5
452	5
453	2
454	3
455	5
456	4
457	1
458	2
459	5
460	1
461	7
462	8
463	8
464	2
465	10
466	8
467	8
468	1
469	9
470	6
471	1
472	10
473	5
474	4
475	4
476	3
477	2
478	5
479	2
480	4
481	10
482	2
483	6
484	10
485	2
486	6
487	6
488	9
489	7
490	1
491	6
492	5
493	7
494	5
495	7
496	1
497	1
498	7
499	8
500	4
501	7
502	1
503	8
504	6
505	10
506	3
507	7
508	6
509	5
510	7
511	8
512	1
513	8
514	4
515	7
516	5
517	6
518	10
519	7
520	10
521	5
522	8
523	6
524	3
525	4
526	2
527	10
528	3
529	3
530	4
531	8
532	10
533	10
534	7
535	5
536	4
537	9
538	1
539	4
540	3
541	2
542	3
543	3
544	1
545	6
546	2
547	8
548	6
549	4
550	5
551	8
552	1
553	10
554	7
555	3
556	4
557	9
558	7
559	8
560	1
561	2
CAPACITY_SECTION
1	23
2	23
3	23
4	23
5	23
6	23
7	23
8	23
9	23
10	23
11	23
12	23
13	23
14	23
15	23
16	23
17	23
18	23
19	23
20	23
21	23
22	23
23	23
24	23
25	23
26	23
27	23
28	23
29	23
30	23
31	23
32	23
33	23
34	23
35	23
36	23
37	23
38	23
39	23
40	23
41	23
42	23
43	23
44	23
45	23
46	23
47	23
48	23
49	23
50	23
51	23
52	23
53	23
54	23
55	23
56	23
57	23
58	23
59	23
60	23
61	23
62	23
63	23
64	23
65	23
66	23
67	23
68	23
69	23
70	23
71	23
72	23
73	23
74	23
75	23
76	23
77	23
78	23
79	23
80	23
81	23
82	23
83	23
84	23
85	23
86	23
87	23
88	23
89	23
90	23
91	23
92	23
93	23
94	23
95	23
96	23
97	23
98	23
99	23
100	23
101	23
102	23
103	23
104	23
105	23
106	23
107	23
108	23
109	23
110	23
111	23
112	23
113	23
114	23
115	23
116	23
117	23
118	23
119	23
120	23
121	23
122	23
123	23
124	23
125	23
126	23
127	23
128	23
129	23
130	23
131	23
132	23
133	23
134	23
135	23
136	23
137	23
138	23
139	23
140	23
141	23
142	23
143	23
144	23
145	23
146	23
147	23
148	23
149	23
150	23
151	23
152	23
153	23
154	23
155	23
156	23
157	23
158	23
159	23
160	23
161	23
162	23
163	23
164	23
165	23
166	23
167	23
168	23
169	23
170	23
171	23
172	23
173	23
174	23
175	23
176	23
177	23
178	23
179	23
180	23
181	23
182	23
183	23
184	23
185	23
186	23
187	23
188	23
189	23
190	23
191	23
192	23
193	23
194	23
195	23
196	23
197	23
198	23
199	23
200	23
201	23
202	23
203	23
204	23
205	23
206	23
207	23
208	23
209	23
210	23
211	23
212	23
213	23
214	23
215	23
216	23
217	23
218	23
219	23
220	23
221	23
222	23
223	23
224	23
225	23
226	23
227	23
228	23
229	23
230	23
231	23
232	23
233	23
234	23
235	23
236	23
237	23
238	23
239	23
240	23
241	23
242	23
243	23
244	23
245	23
246	23
247	23
248	23
249	23
250	23
251	23
252	23
253	23
254	23
255	23
256	23
257	23
258	23
259	23
260	23
261	23
262	23
263	23
264	23
265	23
266	23
267	23
268	23
269	23
270	23
271	23
272	23
273	23
274	23
275	23
276	23
277	23
278	23
279	23
280	23
281	23
282	23
283	23
284	23
285	23
286	23
287	23
288	23
289	23
290	23
291	23
292	23
293	23
294	23
295	23
296	23
297	23
298	23
299	23
300	23
301	23
302	23
303	23
304	23
305	23
306	23
307	23
308	23
309	23
310	23
311	23
312	23
313	23
314	23
315	23
316	23
317	23
318	23
319	23
320	23
321	23
322	23
323	23
324	23
325	23
326	23
327	23
328	23
329	23
330	23
331	23
332	23
333	23
334	23
335	23
336	23
337	23
338	23
339	23
340	23
341	23
342	23
343	23
344	23
345	23
346	23
347	23
348	23
349	23
350	23
351	23
352	23
353	23
354	23
355	23
356	23
357	23
358	23
359	23
360	23
361	23
362	23
363	23
364	23
365	23
366	23
367	23
368	23
369	23
370	23
371	23
372	23
373	23
374	23
375	23
376	23
377	23
378	23
379	23
380	23
381	23
382	23
383	23
384	23
385	23
386	23
387	23
388	23
389	23
390	23
391	23
392	23
393	23
394	23
395	23
396	23
397	23
398	23
399	23
400	23
401	23
402	23
403	23
404	23
405	23
406	23
407	23
408	23
409	23
410	23
411	23
412	23
413	23
414	23
415	23
416	23
417	23
418	23
419	23
420	23
421	23
422	23
423	23
424	23
425	23
426	23
427	23
428	23
429	23
430	23
431	23
432	23
433	23
434	23
435	23
436	23
437	23
438	23
439	23
440	23
441	23
442	23
443	23
444	23
445	23
446	23
447	23
448	23
449	23
450	23
451	23
452	23
453	23
454	23
455	23
456	23
457	23
458	23
459	23
460	23
461	23
462	23
463	23
464	23
465	23
466	23
467	23
468	23
469	23
470	23
471	23
472	23
473	23
474	23
475	23
476	23
477	23
478	23
479	23
480	23
481	23
482	23
483	23
484	23
485	23
486	23
487	23
488	23
489	23
490	23
491	23
492	23
493	23
494	23
495	23
496	23
497	23
498	23
499	23
500	23
501	23
502	23
503	23
504	23
505	23
506	23
507	23
508	23
509	23
510	23
511	23
512	23
513	23
514	23
515	23
516	23
517	23
518	23
519	23
520	23
521	23
522	23
523	23
524	23
525	23
526	23
527	23
528	23
529	23
530	23
531	23
532	23
533	23
534	23
535	23
536	23
537	23
538	23
539	23
540	23
541	23
542	23
543	23
544	23
545	23
546	23
547	23
548	23
549	23
550	23
551	23
552	23
553	23
554	23
555	23
556	23
557	23
558	23
559	23
560	23
561	58
562	58
563	58
564	58
565	58
566	58
567	58
568	58
569	58
570	58
571	58
572	58
573	58
574	58
575	58
576	58
577	58
578	58
579	58
580	58
581	58
582	58
583	58
584	58
585	58
586	58
587	58
588	58
589	58
590	58
591	58
592	58
593	58
594	58
595	58
596	58
597	58
598	58
599	58
600	58
601	58
602	58
603	58
604	58
605	58
606	58
607	58
608	58
609	58
610	58
611	58
612	58
613	58
614	58
615	58
616	58
617	58
618	58
619	58
620	58
621	58
622	58
623	58
624	58
625	58
626	58
627	58
628	58
629	58
630	58
631	58
632	58
633	58
634	58
635	58
636	58
637	58
638	58
639	58
640	58
641	58
642	58
643	58
644	58
645	58
646	58
647	58
648	58
649	58
650	58
651	58
652	58
653	58
654	58
655	58
656	58
657	58
658	58
659	58
660	58
661	58
662	58
663	58
664	58
665	58
666	58
667	58
668	58
669	58
670	58
671	58
672	58
673	58
674	58
675	58
676	58
677	58
678	58
679	58
680	58
681	58
682	58
683	58
684	58
685	58
686	58
687	58
688	58
689	58
690	58
691	58
692	58
693	58
694	58
695	58
696	58
697	58
698	58
699	58
700	58
701	58
702	58
703	58
704	58
705	58
706	58
707	58
708	58
709	58
710	58
711	58
712	58
713	58
714	58
715	58
716	58
717	58
718	58
719	58
720	58
721	58
722	58
723	58
724	58
725	58
726	58
727	58
728	58
729	58
730	58
731	58
732	58
733	58
734	58
735	58
736	58
737	58
738	58
739	58
740	58
741	58
742	58
743	58
744	58
745	58
746	58
747	58
748	58
749	58
750	58
751	58
752	58
753	58
754	58
755	58
756	58
757	58
758	58
759	58
760	58
761	58
762	58
763	58
764	58
765	58
766	58
767	58
768	58
769	58
770	58
771	58
772	58
773	58
774	58
775	58
776	58
777	58
778	58
779	58
780	58
781	58
782	58
783	58
784	58
785	58
786	58
787	58
788	58
789	58
790	58
791	58
792	58
793	58
794	58
795	58
796	58
797	58
798	58
799	58
800	58
801	58
802	58
803	58
804	58
805	58
806	58
807	58
808	58
809	58
810	58
811	58
812	58
813	58
814	58
815	58
816	58
817	58
818	58
819	58
820	58
821	58
822	58
823	58
824	58
825	58
826	58
827	58
828	58
829	58
830	58
831	58
832	58
833	58
834	58
835	58
836	58
837	58
838	58
839	58
840	58
841	58
842	58
843	58
844	58
845	58
846	58
847	58
848	58
849	58
850	58
851	58
852	58
853	58
854	58
855	58
856	58
857	58
858	58
859	58
860	58
861	58
862	58
863	58
864	58
865	58
866	58
867	58
868	58
869	58
870	58
871	58
872	58
873	58
874	58
875	58
876	58
877	58
878	58
879	58
880	58
881	58
882	58
883	58
884	58
885	58
886	58
887	58
888	58
889	58
890	58
891	58
892	58
893	58
894	58
895	58
896	58
897	58
898	58
899	58
900	58
901	58
902	58
903	58
904	58
905	58
906	58
907	58
908	58
909	58
910	58
911	58
912	58
913	58
914	58
915	58
916	58
917	58
918	58
919	58
920	58
921	58
922	58
923	58
924	58
925	58
926	58
927	58
928	58
929	58
930	58
931	58
932	58
933	58
934	58
935	58
936	58
937	58
938	58
939	58
940	58
941	58
942	58
943	58
944	58
945	58
946	58
947	58
948	58
949	58
950	58
951	58
952	58
953	58
954	58
955	58
956	58
957	58
958	58
959	58
960	58
961	58
962	58
963	58
964	58
965	58
966	58
967	58
968	58
969	58
970	58
971	58
972	58
973	58
974	58
975	58
976	58
977	58
978	58
979	58
980	58
981	58
982	58
983	58
984	58
985	58
986	58
987	58
988	58
989	58
990	58
991	58
992	58
993	58
994	58
995	58
996	58
997	58
998	58
999	58
1000	58
1001	58
1002	58
1003	58
1004	58
1005	58
1006	58
1007	58
1008	58
1009	58
1010	58
1011	58
1012	58
1013	58
1014	58
1015	58
1016	58
1017	58
1018	58
1019	58
1020	58
1021	58
1022	58
1023	58
1024	58
1025	58
1026	58
1027	58
1028	58
1029	58
1030	58
1031	58
1032	58
1033	58
1034	58
1035	58
1036	58
1037	58
1038	58
1039	58
1040	58
1041	58
1042	58
1043	58
1044	58
1045	58
1046	58
1047	58
1048	58
1049	58
1050	58
1051	58
1052	58
1053	58
1054	58
1055	58
1056	58
1057	58
1058	58
1059	58
1060	58
1061	58
1062	58
1063	58
1064	58
1065	58
1066	58
1067	58
1068	58
1069	58
1070	58
1071	58
1072	58
1073	58
1074	58
1075	58
1076	58
1077	58
1078	58
1079	58
1080	58
1081	58
1082	58
1083	58
1084	58
1085	58
1086	58
1087	58
1088	58
1089	58
1090	58
1091	58
1092	58
1093	58
1094	58
1095	58
1096	58
1097	58
1098	58
1099	58
1100	58
1101	58
1102	58
1103	58
1104	58
1105	58
1106	58
1107	58
1108	58
1109	58
1110	58
1111	58
1112	58
1113	58
1114	58
1115	58
1116	58
1117	58
1118	58
1119	58
1120	58
1121	141
1122	141
1123	141
1124	141
1125	141
1126	141
1127	141
1128	141
1129	141
1130	141
1131	141
1132	141
1133	141
1134	141
1135	141
1136	141
1137	141
1138	141
1139	141
1140	141
1141	141
1142	141
1143	141
1144	141
1145	141
1146	141
1147	141
1148	141
1149	141
1150	141
1151	141
1152	141
1153	141
1154	141
1155	141
1156	141
1157	141
1158	141
1159	141
1160	141
1161	141
1162	141
1163	141
1164	141
1165	141
1166	141
1167	141
1168	141
1169	141
1170	141
1171	141
1172	141
1173	141
1174	141
1175	141
1176	141
1177	141
1178	141
1179	141
1180	141
1181	141
1182	141
1183	141
1184	141
1185	141
1186	141
1187	141
1188	141
1189	141
1190	141
1191	141
1192	141
1193	141
1194	141
1195	141
1196	141
1197	141
1198	141
1199	141
1200	141
1201	141
1202	141
1203	141
1204	141
1205	141
1206	141
1207	141
1208	141
1209	141
1210	141
1211	141
1212	141
1213	141
1214	141
1215	141
1216	141
1217	141
1218	141
1219	141
1220	141
1221	141
1222	141
1223	141
1224	141
1225	141
1226	141
1227	141
1228	141
1229	141
1230	141
1231	141
1232	141
1233	141
1234	141
1235	141
1236	141
1237	141
1238	141
1239	141
1240	141
1241	141
1242	141
1243	141
1244	141
1245	141
1246	141
1247	141
1248	141
1249	141
1250	141
1251	141
1252	141
1253	141
1254	141
1255	141
1256	141
1257	141
1258	141
1259	141
1260	141
1261	141
1262	141
1263	141
1264	141
1265	141
1266	141
1267	141
1268	141
1269	141
1270	141
1271	141
1272	141
1273	141
1274	141
1275	141
1276	141
1277	141
1278	141
1279	141
1280	141
1281	141
1282	141
1283	141
1284	141
1285	141
1286	141
1287	141
1288	141
1289	141
1290	141
1291	141
1292	141
1293	141
1294	141
1295	141
1296	141
1297	141
1298	141
1299	141
1300	141
1301	141
1302	141
1303	141
1304	141
1305	141
1306	141
1307	141
1308	141
1309	141
1310	141
1311	141
1312	141
1313	141
1314	141
1315	141
1316	141
1317	141
1318	141
1319	141
1320	141
1321	141
1322	141
1323	141
1324	141
1325	141
1326	141
1327	141
1328	141
1329	141
1330	141
1331	141
1332	141
1333	141
1334	141
1335	141
1336	141
1337	141
1338	141
1339	141
1340	141
1341	141
1342	141
1343	141
1344	141
1345	141
1346	141
1347	141
1348	141
1349	141
1350	141
1351	141
1352	141
1353	141
1354	141
1355	141
1356	141
1357	141
1358	141
1359	141
1360	141
1361	141
1362	141
1363	141
1364	141
1365	141
1366	141
1367	141
1368	141
1369	141
1370	141
1371	141
1372	141
1373	141
1374	141
1375	141
1376	141
1377	141
1378	141
1379	141
1380	141
1381	141
1382	141
1383	141
1384	141
1385	141
1386	141
1387	141
1388	141
1389	141
1390	141
1391	141
1392	141
1393	141
1394	141
1395	141
1396	141
1397	141
1398	141
1399	141
1400	141
1401	141
1402	141
1403	141
1404	141
1405	141
1406	141
1407	141
1408	141
1409	141
1410	141
1411	141
1412	141
1413	141
1414	141
1415	141
1416	141
1417	141
1418	141
1419	141
1420	141
1421	141
1422	141
1423	141
1424	141
1425	141
1426	141
1427	141
1428	141
1429	141
1430	141
1431	141
1432	141
1433	141
1434	141
1435	141
1436	141
1437	141
1438	141
1439	141
1440	141
1441	141
1442	141
1443	141
1444	141
1445	141
1446	141
1447	141
1448	141
1449	141
1450	141
1451	141
1452	141
1453	141
1454	141
1455	141
1456	141
1457	141
1458	141
1459	141
1460	141
1461	141
1462	141
1463	141
1464	141
1465	141
1466	141
1467	141
1468	141
1469	141
1470	141
1471	141
1472	141
1473	141
1474	141
1475	141
1476	141
1477	141
1478	141
1479	141
1480	141
1481	141
1482	141
1483	141
1484	141
1485	141
1486	141
1487	141
1488	141
1489	141
1490	141
1491	141
1492	141
1493	141
1494	141
1495	141
1496	141
1497	141
1498	141
1499	141
1500	141
1501	141
1502	141
1503	141
1504	141
1505	141
1506	141
1507	141
1508	141
1509	141
1510	141
1511	141
1512	141
1513	141
1514	141
1515	141
1516	141
1517	141
1518	141
1519	141
1520	141
1521	141
1522	141
1523	141
1524	141
1525	141
1526	141
1527	141
1528	141
1529	141
1530	141
1531	141
1532	141
1533	141
1534	141
1535	141
1536	141
1537	141
1538	141
1539	141
1540	141
1541	141
1542	141
1543	141
1544	141
1545	141
1546	141
1547	141
1548	141
1549	141
1550	141
1551	141
1552	141
1553	141
1554	141
1555	141
1556	141
1557	141
1558	141
1559	141
1560	141
1561	141
1562	141
1563	141
1564	141
1565	141
1566	141
1567	141
1568	141
1569	141
1570	141
1571	141
1572	141
1573	141
1574	141
1575	141
1576	141
1577	141
1578	141
1579	141
1580	141
1581	141
1582	141
1583	141
1584	141
1585	141
1586	141
1587	141
1588	141
1589	141
1590	141
1591	141
1592	141
1593	141
1594	141
1595	141
1596	141
1597	141
1598	141
1599	141
1600	141
1601	141
1602	141
1603	141
1604	141
1605	141
1606	141
1607	141
1608	141
1609	141
1610	141
1611	141
1612	141
1613	141
1614	141
1615	141
1616	141
1617	141
1618	141
1619	141
1620	141
1621	141
1622	141
1623	141
1624	141
1625	141
1626	141
1627	141
1628	141
1629	141
1630	141
1631	141
1632	141
1633	141
1634	141
1635	141
1636	141
1637	141
1638	141
1639	141
1640	141
1641	141
1642	141
1643	141
1644	141
1645	141
1646	141
1647	141
1648	141
1649	141
1650	141
1651	141
1652	141
1653	141
1654	141
1655	141
1656	141
1657	141
1658	141
1659	141
1660	141
1661	141
1662	141
1663	141
1664	141
1665	141
1666	141
1667	141
1668	141
1669	141
1670	141
1671	141
1672	141
1673	141
1674	141
1675	141
1676	141
1677	141
1678	141
1679	141
1680	141
VEHICLES_UNIT_DISTANCE_COST_SECTION
1	41
2	41
3	41
4	41
5	41
6	41
7	41
8	41
9	41
10	41
11	41
12	41
13	41
14	41
15	41
16	41
17	41
18	41
19	41
20	41
21	41
22	41
23	41
24	41
25	41
26	41
27	41
28	41
29	41
30	41
31	41
32	41
33	41
34	41
35	41
36	41
37	41
38	41
39	41
40	41
41	41
42	41
43	41
44	41
45	41
46	41
47	41
48	41
49	41
50	41
51	41
52	41
53	41
54	41
55	41
56	41
57	41
58	41
59	41
60	41
61	41
62	41
63	41
64	41
65	41
66	41
67	41
68	41
69	41
70	41
71	41
72	41
73	41
74	41
75	41
76	41
77	41
78	41
79	41
80	41
81	41
82	41
83	41
84	41
85	41
86	41
87	41
88	41
89	41
90	41
91	41
92	41
93	41
94	41
95	41
96	41
97	41
98	41
99	41
100	41
101	41
102	41
103	41
104	41
105	41
106	41
107	41
108	41
109	41
110	41
111	41
112	41
113	41
114	41
115	41
116	41
117	41
118	41
119	41
120	41
121	41
122	41
123	41
124	41
125	41
126	41
127	41
128	41
129	41
130	41
131	41
132	41
133	41
134	41
135	41
136	41
137	41
138	41
139	41
140	41
141	41
142	41
143	41
144	41
145	41
146	41
147	41
148	41
149	41
150	41
151	41
152	41
153	41
154	41
155	41
156	41
157	41
158	41
159	41
160	41
161	41
162	41
163	41
164	41
165	41
166	41
167	41
168	41
169	41
170	41
171	41
172	41
173	41
174	41
175	41
176	41
177	41
178	41
179	41
180	41
181	41
182	41
183	41
184	41
185	41
186	41
187	41
188	41
189	41
190	41
191	41
192	41
193	41
194	41
195	41
196	41
197	41
198	41
199	41
200	41
201	41
202	41
203	41
204	41
205	41
206	41
207	41
208	41
209	41
210	41
211	41
212	41
213	41
214	41
215	41
216	41
217	41
218	41
219	41
220	41
221	41
222	41
223	41
224	41
225	41
226	41
227	41
228	41
229	41
230	41
231	41
232	41
233	41
234	41
235	41
236	41
237	41
238	41
239	41
240	41
241	41
242	41
243	41
244	41
245	41
246	41
247	41
248	41
249	41
250	41
251	41
252	41
253	41
254	41
255	41
256	41
257	41
258	41
259	41
260	41
261	41
262	41
263	41
264	41
265	41
266	41
267	41
268	41
269	41
270	41
271	41
272	41
273	41
274	41
275	41
276	41
277	41
278	41
279	41
280	41
281	41
282	41
283	41
284	41
285	41
286	41
287	41
288	41
289	41
290	41
291	41
292	41
293	41
294	41
295	41
296	41
297	41
298	41
299	41
300	41
301	41
302	41
303	41
304	41
305	41
306	41
307	41
308	41
309	41
310	41
311	41
312	41
313	41
314	41
315	41
316	41
317	41
318	41
319	41
320	41
321	41
322	41
323	41
324	41
325	41
326	41
327	41
328	41
329	41
330	41
331	41
332	41
333	41
334	41
335	41
336	41
337	41
338	41
339	41
340	41
341	41
342	41
343	41
344	41
345	41
346	41
347	41
348	41
349	41
350	41
351	41
352	41
353	41
354	41
355	41
356	41
357	41
358	41
359	41
360	41
361	41
362	41
363	41
364	41
365	41
366	41
367	41
368	41
369	41
370	41
371	41
372	41
373	41
374	41
375	41
376	41
377	41
378	41
379	41
380	41
381	41
382	41
383	41
384	41
385	41
386	41
387	41
388	41
389	41
390	41
391	41
392	41
393	41
394	41
395	41
396	41
397	41
398	41
399	41
400	41
401	41
402	41
403	41
404	41
405	41
406	41
407	41
408	41
409	41
410	41
411	41
412	41
413	41
414	41
415	41
416	41
417	41
418	41
419	41
420	41
421	41
422	41
423	41
424	41
425	41
426	41
427	41
428	41
429	41
430	41
431	41
432	41
433	41
434	41
435	41
436	41
437	41
438	41
439	41
440	41
441	41
442	41
443	41
444	41
445	41
446	41
447	41
448	41
449	41
450	41
451	41
452	41
453	41
454	41
455	41
456	41
457	41
458	41
459	41
460	41
461	41
462	41
463	41
464	41
465	41
466	41
467	41
468	41
469	41
470	41
471	41
472	41
473	41
474	41
475	41
476	41
477	41
478	41
479	41
480	41
481	41
482	41
483	41
484	41
485	41
486	41
487	41
488	41
489	41
490	41
491	41
492	41
493	41
494	41
495	41
496	41
497	41
498	41
499	41
500	41
501	41
502	41
503	41
504	41
505	41
506	41
507	41
508	41
509	41
510	41
511	41
512	41
513	41
514	41
515	41
516	41
517	41
518	41
519	41
520	41
521	41
522	41
523	41
524	41
525	41
526	41
527	41
528	41
529	41
530	41
531	41
532	41
533	41
534	41
535	41
536	41
537	41
538	41
539	41
540	41
541	41
542	41
543	41
544	41
545	41
546	41
547	41
548	41
549	41
550	41
551	41
552	41
553	41
554	41
555	41
556	41
557	41
558	41
559	41
560	41
561	100
562	100
563	100
564	100
565	100
566	100
567	100
568	100
569	100
570	100
571	100
572	100
573	100
574	100
575	100
576	100
577	100
578	100
579	100
580	100
581	100
582	100
583	100
584	100
585	100
586	100
587	100
588	100
589	100
590	100
591	100
592	100
593	100
594	100
595	100
596	100
597	100
598	100
599	100
600	100
601	100
602	100
603	100
604	100
605	100
606	100
607	100
608	100
609	100
610	100
611	100
612	100
613	100
614	100
615	100
616	100
617	100
618	100
619	100
620	100
621	100
622	100
623	100
624	100
625	100
626	100
627	100
628	100
629	100
630	100
631	100
632	100
633	100
634	100
635	100
636	100
637	100
638	100
639	100
640	100
641	100
642	100
643	100
644	100
645	100
646	100
647	100
648	100
649	100
650	100
651	100
652	100
653	100
654	100
655	100
656	100
657	100
658	100
659	100
660	100
661	100
662	100
663	100
664	100
665	100
666	100
667	100
668	100
669	100
670	100
671	100
672	100
673	100
674	100
675	100
676	100
677	100
678	100
679	100
680	100
681	100
682	100
683	100
684	100
685	100
686	100
687	100
688	100
689	100
690	100
691	100
692	100
693	100
694	100
695	100
696	100
697	100
698	100
699	100
700	100
701	100
702	100
703	100
704	100
705	100
706	100
707	100
708	100
709	100
710	100
711	100
712	100
713	100
714	100
715	100
716	100
717	100
718	100
719	100
720	100
721	100
722	100
723	100
724	100
725	100
726	100
727	100
728	100
729	100
730	100
731	100
732	100
733	100
734	100
735	100
736	100
737	100
738	100
739	100
740	100
741	100
742	100
743	100
744	100
745	100
746	100
747	100
748	100
749	100
750	100
751	100
752	100
753	100
754	100
755	100
756	100
757	100
758	100
759	100
760	100
761	100
762	100
763	100
764	100
765	100
766	100
767	100
768	100
769	100
770	100
771	100
772	100
773	100
774	100
775	100
776	100
777	100
778	100
779	100
780	100
781	100
782	100
783	100
784	100
785	100
786	100
787	100
788	100
789	100
790	100
791	100
792	100
793	100
794	100
795	100
796	100
797	100
798	100
799	100
800	100
801	100
802	100
803	100
804	100
805	100
806	100
807	100
808	100
809	100
810	100
811	100
812	100
813	100
814	100
815	100
816	100
817	100
818	100
819	100
820	100
821	100
822	100
823	100
824	100
825	100
826	100
827	100
828	100
829	100
830	100
831	100
832	100
833	100
834	100
835	100
836	100
837	100
838	100
839	100
840	100
841	100
842	100
843	100
844	100
845	100
846	100
847	100
848	100
849	100
850	100
851	100
852	100
853	100
854	100
855	100
856	100
857	100
858	100
859	100
860	100
861	100
862	100
863	100
864	100
865	100
866	100
867	100
868	100
869	100
870	100
871	100
872	100
873	100
874	100
875	100
876	100
877	100
878	100
879	100
880	100
881	100
882	100
883	100
884	100
885	100
886	100
887	100
888	100
889	100
890	100
891	100
892	100
893	100
894	100
895	100
896	100
897	100
898	100
899	100
900	100
901	100
902	100
903	100
904	100
905	100
906	100
907	100
908	100
909	100
910	100
911	100
912	100
913	100
914	100
915	100
916	100
917	100
918	100
919	100
920	100
921	100
922	100
923	100
924	100
925	100
926	100
927	100
928	100
929	100
930	100
931	100
932	100
933	100
934	100
935	100
936	100
937	100
938	100
939	100
940	100
941	100
942	100
943	100
944	100
945	100
946	100
947	100
948	100
949	100
950	100
951	100
952	100
953	100
954	100
955	100
956	100
957	100
958	100
959	100
960	100
961	100
962	100
963	100
964	100
965	100
966	100
967	100
968	100
969	100
970	100
971	100
972	100
973	100
974	100
975	100
976	100
977	100
978	100
979	100
980	100
981	100
982	100
983	100
984	100
985	100
986	100
987	100
988	100
989	100
990	100
991	100
992	100
993	100
994	100
995	100
996	100
997	100
998	100
999	100
1000	100
1001	100
1002	100
1003	100
1004	100
1005	100
1006	100
1007	100
1008	100
1009	100
1010	100
1011	100
1012	100
1013	100
1014	100
1015	100
1016	100
1017	100
1018	100
1019	100
1020	100
1021	100
1022	100
1023	100
1024	100
1025	100
1026	100
1027	100
1028	100
1029	100
1030	100
1031	100
1032	100
1033	100
1034	100
1035	100
1036	100
1037	100
1038	100
1039	100
1040	100
1041	100
1042	100
1043	100
1044	100
1045	100
1046	100
1047	100
1048	100
1049	100
1050	100
1051	100
1052	100
1053	100
1054	100
1055	100
1056	100
1057	100
1058	100
1059	100
1060	100
1061	100
1062	100
1063	100
1064	100
1065	100
1066	100
1067	100
1068	100
1069	100
1070	100
1071	100
1072	100
1073	100
1074	100
1075	100
1076	100
1077	100
1078	100
1079	100
1080	100
1081	100
1082	100
1083	100
1084	100
1085	100
1086	100
1087	100
1088	100
1089	100
1090	100
1091	100
1092	100
1093	100
1094	100
1095	100
1096	100
1097	100
1098	100
1099	100
1100	100
1101	100
1102	100
1103	100
1104	100
1105	100
1106	100
1107	100
1108	100
1109	100
1110	100
1111	100
1112	100
1113	100
1114	100
1115	100
1116	100
1117	100
1118	100
1119	100
1120	100
1121	245
1122	245
1123	245
1124	245
1125	245
1126	245
1127	245
1128	245
1129	245
1130	245
1131	245
1132	245
1133	245
1134	245
1135	245
1136	245
1137	245
1138	245
1139	245
1140	245
1141	245
1142	245
1143	245
1144	245
1145	245
1146	245
1147	245
1148	245
1149	245
1150	245
1151	245
1152	245
1153	245
1154	245
1155	245
1156	245
1157	245
1158	245
1159	245
1160	245
1161	245
1162	245
1163	245
1164	245
1165	245
1166	245
1167	245
1168	245
1169	245
1170	245
1171	245
1172	245
1173	245
1174	245
1175	245
1176	245
1177	245
1178	245
1179	245
1180	245
1181	245
1182	245
1183	245
1184	245
1185	245
1186	245
1187	245
1188	245
1189	245
1190	245
1191	245
1192	245
1193	245
1194	245
1195	245
1196	245
1197	245
1198	245
1199	245
1200	245
1201	245
1202	245
1203	245
1204	245
1205	245
1206	245
1207	245
1208	245
1209	245
1210	245
1211	245
1212	245
1213	245
1214	245
1215	245
1216	245
1217	245
1218	245
1219	245
1220	245
1221	245
1222	245
1223	245
1224	245
1225	245
1226	245
1227	245
1228	245
1229	245
1230	245
1231	245
1232	245
1233	245
1234	245
1235	245
1236	245
1237	245
1238	245
1239	245
1240	245
1241	245
1242	245
1243	245
1244	245
1245	245
1246	245
1247	245
1248	245
1249	245
1250	245
1251	245
1252	245
1253	245
1254	245
1255	245
1256	245
1257	245
1258	245
1259	245
1260	245
1261	245
1262	245
1263	245
1264	245
1265	245
1266	245
1267	245
1268	245
1269	245
1270	245
1271	245
1272	245
1273	245
1274	245
1275	245
1276	245
1277	245
1278	245
1279	245
1280	245
1281	245
1282	245
1283	245
1284	245
1285	245
1286	245
1287	245
1288	245
1289	245
1290	245
1291	245
1292	245
1293	245
1294	245
1295	245
1296	245
1297	245
1298	245
1299	245
1300	245
1301	245
1302	245
1303	245
1304	245
1305	245
1306	245
1307	245
1308	245
1309	245
1310	245
1311	245
1312	245
1313	245
1314	245
1315	245
1316	245
1317	245
1318	245
1319	245
1320	245
1321	245
1322	245
1323	245
1324	245
1325	245
1326	245
1327	245
1328	245
1329	245
1330	245
1331	245
1332	245
1333	245
1334	245
1335	245
1336	245
1337	245
1338	245
1339	245
1340	245
1341	245
1342	245
1343	245
1344	245
1345	245
1346	245
1347	245
1348	245
1349	245
1350	245
1351	245
1352	245
1353	245
1354	245
1355	245
1356	245
1357	245
1358	245
1359	245
1360	245
1361	245
1362	245
1363	245
1364	245
1365	245
1366	245
1367	245
1368	245
1369	245
1370	245
1371	245
1372	245
1373	245
1374	245
1375	245
1376	245
1377	245
1378	245
1379	245
1380	245
1381	245
1382	245
1383	245
1384	245
1385	245
1386	245
1387	245
1388	245
1389	245
1390	245
1391	245
1392	245
1393	245
1394	245
1395	245
1396	245
1397	245
1398	245
1399	245
1400	245
1401	245
1402	245
1403	245
1404	245
1405	245
1406	245
1407	245
1408	245
1409	245
1410	245
1411	245
1412	245
1413	245
1414	245
1415	245
1416	245
1417	245
1418	245
1419	245
1420	245
1421	245
1422	245
1423	245
1424	245
1425	245
1426	245
1427	245
1428	245
1429	245
1430	245
1431	245
1432	245
1433	245
1434	245
1435	245
1436	245
1437	245
1438	245
1439	245
1440	245
1441	245
1442	245
1443	245
1444	245
1445	245
1446	245
1447	245
1448	245
1449	245
1450	245
1451	245
1452	245
1453	245
1454	245
1455	245
1456	245
1457	245
1458	245
1459	245
1460	245
1461	245
1462	245
1463	245
1464	245
1465	245
1466	245
1467	245
1468	245
1469	245
1470	245
1471	245
1472	245
1473	245
1474	245
1475	245
1476	245
1477	245
1478	245
1479	245
1480	245
1481	245
1482	245
1483	245
1484	245
1485	245
1486	245
1487	245
1488	245
1489	245
1490	245
1491	245
1492	245
1493	245
1494	245
1495	245
1496	245
1497	245
1498	245
1499	245
1500	245
1501	245
1502	245
1503	245
1504	245
1505	245
1506	245
1507	245
1508	245
1509	245
1510	245
1511	245
1512	245
1513	245
1514	245
1515	245
1516	245
1517	245
1518	245
1519	245
1520	245
1521	245
1522	245
1523	245
1524	245
1525	245
1526	245
1527	245
1528	245
1529	245
1530	245
1531	245
1532	245
1533	245
1534	245
1535	245
1536	245
1537	245
1538	245
1539	245
1540	245
1541	245
1542	245
1543	245
1544	245
1545	245
1546	245
1547	245
1548	245
1549	245
1550	245
1551	245
1552	245
1553	245
1554	245
1555	245
1556	245
1557	245
1558	245
1559	245
1560	245
1561	245
1562	245
1563	245
1564	245
1565	245
1566	245
1567	245
1568	245
1569	245
1570	245
1571	245
1572	245
1573	245
1574	245
1575	245
1576	245
1577	245
1578	245
1579	245
1580	245
1581	245
1582	245
1583	245
1584	245
1585	245
1586	245
1587	245
1588	245
1589	245
1590	245
1591	245
1592	245
1593	245
1594	245
1595	245
1596	245
1597	245
1598	245
1599	245
1600	245
1601	245
1602	245
1603	245
1604	245
1605	245
1606	245
1607	245
1608	245
1609	245
1610	245
1611	245
1612	245
1613	245
1614	245
1615	245
1616	245
1617	245
1618	245
1619	245
1620	245
1621	245
1622	245
1623	245
1624	245
1625	245
1626	245
1627	245
1628	245
1629	245
1630	245
1631	245
1632	245
1633	245
1634	245
1635	245
1636	245
1637	245
1638	245
1639	245
1640	245
1641	245
1642	245
1643	245
1644	245
1645	245
1646	245
1647	245
1648	245
1649	245
1650	245
1651	245
1652	245
1653	245
1654	245
1655	245
1656	245
1657	245
1658	245
1659	245
1660	245
1661	245
1662	245
1663	245
1664	245
1665	245
1666	245
1667	245
1668	245
1669	245
1670	245
1671	245
1672	245
1673	245
1674	245
1675	245
1676	245
1677	245
1678	245
1679	245
1680	245
DEPOT_SECTION
1
EOF
